Set parameter TokenServer to value "hpc-licenses.hpcc.usc.edu"
Set parameter TimeLimit to value 3600
Gurobi Optimizer version 9.5.1 build v9.5.1rc2 (linux64)
Thread count: 20 physical cores, 20 logical processors, using up to 20 threads
Optimize a model with 6007 rows, 4529 columns and 24534 nonzeros
Model fingerprint: 0x10d7fb49
Variable types: 4506 continuous, 23 integer (23 binary)
Coefficient statistics:
  Matrix range     [1e+00, 1e+00]
  Objective range  [3e-03, 1e+00]
  Bounds range     [1e+00, 1e+00]
  RHS range        [1e+00, 5e+01]
Found heuristic solution: objective 255.4424668
Presolve removed 1520 rows and 1515 columns
Presolve time: 0.06s
Presolved: 4487 rows, 3014 columns, 21975 nonzeros
Variable types: 2994 continuous, 20 integer (20 binary)

Root relaxation: objective 2.632213e+02, 2323 iterations, 0.11 seconds (0.12 work units)

    Nodes    |    Current Node    |     Objective Bounds      |     Work
 Expl Unexpl |  Obj  Depth IntInf | Incumbent    BestBd   Gap | It/Node Time

     0     0  263.22133    0    4  255.44247  263.22133  3.05%     -    0s
H    0     0                     257.4087871  263.22133  2.26%     -    0s
     0     0  262.80841    0    4  257.40879  262.80841  2.10%     -    0s
     0     0  262.78783    0    4  257.40879  262.78783  2.09%     -    0s
     0     0  262.65084    0    4  257.40879  262.65084  2.04%     -    0s
     0     0  262.64751    0    6  257.40879  262.64751  2.04%     -    0s
     0     0  262.64723    0    6  257.40879  262.64723  2.04%     -    0s
H    0     0                     262.6040410  262.64723  0.02%     -    0s

Cutting planes:
  Gomory: 6
  MIR: 136
  Flow cover: 1
  RLT: 17
  Relax-and-lift: 2

Explored 1 nodes (2973 simplex iterations) in 0.57 seconds (0.45 work units)
Thread count was 20 (of 20 available processors)

Solution count 3: 262.604 257.409 255.442 

Optimal solution found (tolerance 1.00e-04)
Best objective 2.626040409626e+02, best bound 2.626040409626e+02, gap 0.0000%



#########node  1
V1.9
#########node  2
0.038461538461538464,0.9615384615384616
#########node  3
1.0,0.0


Total Solving Time 0.9817094802856445
obj value 262.60404096255195
Policy Regret train (Sum) 18.330847802036036
Best Treatment Found train (%) 39.4
treatment classification acc train (%) 60.0
Policy Regret test (Sum) 105.47520302296739
Best Treatment Found test (%) 66.02
treatment classification acc test (%) 56.02
